--- Job with_locational_instrument.gms Start 01/21/22 20:08:05 30.3.0 rc5da09e WEX-WEI x86 64bit/MS Windows
--- GAMS Parameters defined
    Input C:\Users\a.eicke\Documents\Locational-investment-signals\Two node models\with_locational_instrument.gms
    PageSize 0
    ScrDir C:\Users\a.eicke\Documents\Locational-investment-signals\Two node models\225a\
    SysDir C:\GAMS\win64\30.3\
    LogOption 3
    ErrMsg 1
    ErrorLog 99
    IDE 1
    LstTitleLeftAligned 1
GAMS 30.3.0   Copyright (C) 1987-2020 GAMS Development. All rights reserved
Licensee: Small MUD - 5 User License                     S190305:0326AO-WIN
          Hertie School of Governance GmbH, Governance of DigitalizaDC14808
--- Starting compilation
--- with_locational_instrument.gms(71) 3 Mb
--- GDXin=C:\Users\a.eicke\Documents\Locational-investment-signals\Two node models\in.gdx
--- with_locational_instrument.gms(291) 3 Mb
--- Starting execution: elapsed 0:00:00.021
--- with_locational_instrument.gms(258) 4 Mb
--- Generating MIQCP model LOCI
--- with_locational_instrument.gms(261) 6 Mb
---   1,151 rows  881 columns  3,195 non-zeroes
---   202 nl-code  32 nl-non-zeroes
---   232 discrete-columns
--- with_locational_instrument.gms(261) 4 Mb
--- Executing CPLEX: elapsed 0:00:00.039

IBM ILOG CPLEX   30.3.0 rc5da09e Released Mar 06, 2020 WEI x86 64bit/MS Window
--- GAMS/Cplex licensed for continuous and discrete problems.
Cplex 12.10.0.0

The search will stop after 65000000 nodes.
Reading data...
Starting Cplex...
Space for names approximately 0.06 Mb
Use option 'names no' to turn use of names off
Version identifier: 12.10.0.0 | 2019-11-26 | 843d4de2ae
CPXPARAM_Advance                                 0
CPXPARAM_Threads                                 1
CPXPARAM_Parallel                                1
CPXPARAM_MIP_Display                             4
CPXPARAM_Simplex_Limits_Iterations               2000000000
CPXPARAM_MIP_Limits_Nodes                        65000000
CPXPARAM_TimeLimit                               150000
CPXPARAM_Tune_TimeLimit                          30000
CPXPARAM_MIP_Tolerances_AbsMIPGap                0
CPXPARAM_MIP_Tolerances_MIPGap                   0.00050000000000000001
CPXPARAM_WorkDir                                 "C:\Users\a.eicke\Documents\Locational-investment-signals\Two node models\225a\"
Tried aggregator 2 times.
MIQP Presolve eliminated 388 rows and 116 columns.
MIQP Presolve modified 310 coefficients.
Aggregator did 37 substitutions.
Reduced MIQP has 726 rows, 723 columns, and 2230 nonzeros.
Reduced MIQP has 200 binaries, 0 generals, 0 SOSs, and 0 indicators.
Reduced MIQP objective Q matrix has 32 nonzeros.
Presolve time = 0.03 sec. (2.06 ticks)
Probing fixed 12 vars, tightened 56 bounds.
Probing time = 0.00 sec. (0.78 ticks)
Tried aggregator 1 time.
MIQP Presolve eliminated 24 rows and 12 columns.
MIQP Presolve modified 16 coefficients.
Reduced MIQP has 702 rows, 711 columns, and 2108 nonzeros.
Reduced MIQP has 188 binaries, 0 generals, 0 SOSs, and 0 indicators.
Reduced MIQP objective Q matrix has 32 nonzeros.
Presolve time = 0.00 sec. (0.89 ticks)
Classifier predicts products in MIQP should be linearized.
Probing fixed 6 vars, tightened 438 bounds.
Probing time = 0.00 sec. (1.19 ticks)
Clique table members: 114.
MIP emphasis: balance optimality and feasibility.
MIP search method: dynamic search.
Parallel mode: none, using 1 thread.
Tried aggregator 1 time.
QP Presolve eliminated 102 rows and 102 columns.
Aggregator did 134 substitutions.
Reduced QP has 466 rows, 475 columns, and 1570 nonzeros.
Reduced QP objective Q matrix has 32 nonzeros.
Presolve time = 0.00 sec. (0.57 ticks)
Parallel mode: none, using 1 thread for barrier

***NOTE: Found 6 dense columns.

Number of nonzeros in lower triangle of A*A' = 2223
Using Approximate Minimum Degree ordering
Total time for automatic ordering = 0.00 sec. (0.21 ticks)
Summary statistics for Cholesky factor:
  Rows in Factor            = 472
  Integer space required    = 1344
  Total non-zeros in factor = 6592
  Total FP ops to factor    = 136864
 Itn      Primal Obj        Dual Obj  Prim Inf Upper Inf  Dual Inf          
   0  -7.9683933e+06   1.5425006e+08  1.39e+05  1.08e+05  1.03e+05
   1  -4.3969787e+06   1.1349030e+08  1.02e+05  7.88e+04  7.52e+04
   2  -1.1021633e+06   5.4447059e+07  4.59e+04  3.56e+04  3.40e+04
   3  -4.2006830e+05   3.0008717e+07  2.26e+04  1.76e+04  1.68e+04
   4  -5.1243138e+04   6.5906443e+06  3.92e+03  3.04e+03  2.91e+03
   5   2.1336001e+03   3.2322268e+06  1.15e+03  8.88e+02  8.50e+02
   6   8.3284449e+04   7.7827226e+05  1.74e+02  1.35e+02  1.29e+02
   7   1.2949512e+05   2.7673170e+05  3.13e+01  2.43e+01  2.32e+01
   8   1.4328252e+05   2.0953885e+05  1.25e+01  9.69e+00  9.28e+00
   9   1.4848852e+05   1.8461693e+05  5.40e+00  4.18e+00  4.00e+00
  10   1.5095181e+05   1.6401913e+05  3.46e-01  2.68e-01  2.57e-01
  11   1.5282779e+05   1.5535330e+05  5.77e-02  4.47e-02  4.28e-02
  12   1.5317323e+05   1.5374013e+05  6.77e-03  5.24e-03  5.02e-03
  13   1.5323778e+05   1.5340080e+05  1.94e-03  1.50e-03  1.44e-03
  14   1.5325428e+05   1.5331293e+05  6.99e-04  5.42e-04  5.18e-04
  15   1.5326257e+05   1.5326675e+05  4.76e-05  3.69e-05  3.53e-05
  16   1.5326331e+05   1.5326378e+05  5.25e-06  4.07e-06  3.89e-06
  17   1.5326340e+05   1.5326347e+05  7.44e-07  5.74e-07  5.49e-07
  18   1.5326341e+05   1.5326342e+05  1.83e-07  1.34e-07  1.28e-07
  19   1.5326341e+05   1.5326341e+05  2.50e-08  9.77e-10  7.14e-10
  20   1.5326341e+05   1.5326341e+05  2.52e-08  2.82e-10  2.08e-11
Barrier time = 0.02 sec. (8.23 ticks)

QP crossover.
  Primal and Dual:  Fixing 273 variables.
  Primal:  Pushed 156, exchanged 84.
  Dual  :  Pushed 13, exchanged 63.

Iteration log . . .
Iteration:     1    Objective     =        153263.411351
Total crossover time = 0.00 sec. (5.59 ticks)

Total time on 1 threads = 0.02 sec. (14.45 ticks)
Root relaxation solution time = 0.02 sec. (14.45 ticks)

        Nodes                                         Cuts/
   Node  Left     Objective  IInf  Best Integer    Best Bound    ItCnt     Gap

      0     0   153263.4114   133                 153263.4114       22         
      0     0   153263.4114   133                   Cuts: 275      718         
      0     0   153263.4114   133                   Cuts: 275     1075         
      0     0   153263.4114   133                   Cuts: 126     1262         
      0     0   153263.4114   133                    Cuts: 53     1294         
      0     0   153263.4114   133                     Cuts: 9     1300         
      0     2   153263.4114    46                 153263.4114     1300         
Elapsed time = 0.42 sec. (202.93 ticks, tree = 0.01 MB, solutions = 0)
     40    40   153189.4259    14                 153263.4114     3930         
    100    86   153259.7207    14                 153263.4114     6992         
                                                 Impl Bds: 11                  
*   140+  110                       151913.5136   153263.4114             0.89%
Found incumbent of value 151913.513566 after 2.22 sec. (958.78 ticks)
    140   112   153167.6398     2   151913.5136   153263.4114    10259    0.89%
*   156   110      integral     0   152072.7024   153263.4114    10965    0.78%
Found incumbent of value 152072.702357 after 2.30 sec. (1007.16 ticks)
    200   150   153169.3811     7   152072.7024   153263.4114    13355    0.78%
                                                  Impl Bds: 1                  
    260   200   153058.5462    14   152072.7024   153263.4114    16937    0.78%
*   300+  232                       152126.9967   153263.4114             0.75%
Found incumbent of value 152126.996713 after 3.52 sec. (1612.75 ticks)
    329   261   152857.8417     5   152126.9967   153263.4114    18969    0.75%
    368   286   153194.0820     9   152126.9967   153263.4114    20419    0.75%
*   400+  314                       152274.1605   153263.4114             0.65%
Found incumbent of value 152274.160476 after 4.47 sec. (2173.43 ticks)
*   440+  104                       153191.3899   153263.4114             0.05%
Found incumbent of value 153191.389922 after 4.70 sec. (2274.22 ticks)

Clique cuts applied:  9
Implied bound cuts applied:  94
Flow cuts applied:  96
Mixed integer rounding cuts applied:  47
Gomory fractional cuts applied:  10

Root node processing (before b&c):
  Real time             =    0.42 sec. (203.00 ticks)
Sequential b&c:
  Real time             =    4.28 sec. (2071.88 ticks)
                          ------------
Total (root+branch&cut) =    4.70 sec. (2274.88 ticks)
MIQP status(102): integer optimal, tolerance
Cplex Time: 4.70sec (det. 2274.88 ticks)
Fixing integer variables, and solving final QP..
Version identifier: 12.10.0.0 | 2019-11-26 | 843d4de2ae
CPXPARAM_Advance                                 2
CPXPARAM_Threads                                 1
CPXPARAM_Parallel                                1
CPXPARAM_MIP_Display                             4
CPXPARAM_Simplex_Limits_Iterations               2000000000
CPXPARAM_MIP_Limits_Nodes                        65000000
CPXPARAM_TimeLimit                               150000
CPXPARAM_Tune_TimeLimit                          30000
CPXPARAM_MIP_Tolerances_AbsMIPGap                0
CPXPARAM_MIP_Tolerances_MIPGap                   0.00050000000000000001
CPXPARAM_WorkDir                                 "C:\Users\a.eicke\Documents\Locational-investment-signals\Two node models\225a\"
Tried aggregator 1 time.
QP Presolve eliminated 828 rows and 566 columns.
Aggregator did 151 substitutions.
Reduced QP has 172 rows, 164 columns, and 631 nonzeros.
Reduced QP objective Q matrix has 32 nonzeros.
Presolve time = 0.02 sec. (0.85 ticks)
Parallel mode: none, using 1 thread for barrier

***NOTE: Found 9 dense columns.

Number of nonzeros in lower triangle of A*A' = 311
Using Approximate Minimum Degree ordering
Total time for automatic ordering = 0.00 sec. (0.02 ticks)
Summary statistics for Cholesky factor:
  Rows in Factor            = 181
  Integer space required    = 356
  Total non-zeros in factor = 1689
  Total FP ops to factor    = 20279
 Itn      Primal Obj        Dual Obj  Prim Inf Upper Inf  Dual Inf          
   0   5.3278205e+04   1.3345160e+07  1.48e+03  1.32e+01  1.61e+05
   1   1.0005817e+05   2.8993803e+06  2.59e+02  2.30e+00  2.81e+04
   2   1.2938804e+05   5.7417644e+05  3.14e+01  2.78e-01  3.41e+03
   3   1.4234406e+05   3.0203815e+05  9.76e+00  8.66e-02  1.06e+03
   4   1.4960661e+05   1.7858993e+05  1.63e+00  1.44e-02  1.91e+02
   5   1.5144445e+05   1.6103186e+05  4.38e-02  3.89e-04  5.50e+00
   6   1.5277378e+05   1.5467534e+05  7.57e-03  6.71e-05  1.12e+00
   7   1.5304884e+05   1.5369869e+05  1.84e-03  1.64e-05  2.77e-01
   8   1.5317641e+05   1.5324099e+05  2.05e-05  1.82e-07  4.02e-03
   9   1.5319090e+05   1.5319261e+05  4.15e-07  3.68e-09  1.36e-04
  10   1.5319138e+05   1.5319141e+05  2.76e-09  1.98e-11  9.82e-07
  11   1.5319139e+05   1.5319139e+05  6.56e-08  8.00e-13  8.31e-09
  12   1.5319139e+05   1.5319139e+05  5.73e-05  5.17e-13  5.52e-11
 Barrier cannot determine infeasibility.
Barrier time = 0.02 sec. (2.72 ticks)

Total time on 1 threads = 0.02 sec. (2.72 ticks)
QP status(6): non-optimal
Cplex Time: 0.02sec (det. 2.72 ticks)
Final solve did not return an optimal solution.
Returning a primal only solution to GAMS (marginals all set to NA).

Solution satisfies tolerances.

MIP Solution:       153191.389922    (23544 iterations, 440 nodes)
Best possible:      153263.411351
Absolute gap:           72.021429
Relative gap:            0.000470

--- Restarting execution
--- with_locational_instrument.gms(261) 2 Mb
--- Reading solution for model LOCI
***
*** Solver did not provide marginals for model LOCI
***
--- Executing after solve: elapsed 0:00:04.953
--- with_locational_instrument.gms(291) 3 Mb
--- GDX File C:\Users\a.eicke\Documents\Locational-investment-signals\Two node models\Output/with_instrument.gdx
*** Status: Normal completion
--- Job with_locational_instrument.gms Stop 01/21/22 20:08:10 elapsed 0:00:04.969
